n = 14;
k = 2;
maxsize = 14;
nML = 3;
nCL = 3;
deg = [2, 4, 3, 4, 4, 1, 3, 3, 3, 1, 4, 4, 4, 4];
ML = array2d(1..3, 1..2, [2, 10, 1, 14, 8, 5]);
CL = array2d(1..3, 1..2, [13, 7, 4, 9, 3, 6]);
A = array2d(1..14, 1..14, [ 0, 1, 0, 0, 0, 0, 0, 0, 0, 0, 0, 0, 1, 0, 1, 0, 0, 0, 1, 0, 0, 0, 0, 0, 0, 0, 1, 1, 0, 0, 0, 1, 0, 0, 1, 0, 0, 0, 0, 1, 0, 0, 0, 0, 1, 0, 1, 0, 0, 0, 0, 1, 1, 0, 0, 0, 0, 1, 0, 1, 0, 0, 0, 0, 0, 0, 1, 1, 0, 0, 0, 0, 0, 0, 0, 0, 0, 0, 0, 0, 1, 0, 0, 0, 0, 0, 1, 0, 0, 0, 0, 0, 1, 0, 0, 0, 1, 0, 0, 0, 0, 0, 0, 0, 0, 0, 1, 0, 0, 1, 0, 1, 0, 0, 0, 0, 0, 0, 1, 1, 0, 0, 0, 0, 0, 1, 0, 0, 0, 1, 0, 0, 0, 0, 0, 0, 0, 0, 0, 0, 0, 0, 0, 1, 1, 1, 0, 0, 0, 0, 0, 0, 0, 1, 0, 0, 1, 0, 1, 0, 0, 1, 0, 0, 0, 0, 1, 0, 1, 1, 0, 0, 0, 0, 1, 0, 0, 0, 0, 1, 0, 0, 0, 1, 0, 0, 0, 0, 0, 1, 1, 0, 1, 0, 0, 0 ]);
W = array2d(1..14, 1..14, [ -9, 7, -4, -2, -2, 4, -1, -9, 2, -9, 0, -5, -8, 1, 2, 10, -2, 0, 8, 9, -4, 0, -8, 9, -2, -2, -7, -7, 4, 2, 0, 2, 3, -9, 0, -1, 10, 0, -2, -3, 0, 5, 10, -5, -7, -10, -2, -9, 2, 1, -8, -4, 0, -10, 5, 10, -8, 10, 5, -8, 5, -6, 3, 7, 3, 5, -8, -1, 1, 8, 5, -10, 1, 8, 10, 2, 4, 5, 7, -4, -3, -5, -2, 7, 7, 8, 1, -5, 1, 4, -4, 9, 4, 0, 3, -10, -4, -1, -9, 3, -5, 10, -5, 10, 3, 1, -4, -9, -8, -4, 4, 8, -7, -2, -9, 5, 5, 2, 7, 0, 5, -6, -3, 9, 9, 3, 3, 3, 0, 7, -3, -1, 7, -6, -6, 5, 6, 4, 1, 4, -1, 8, 9, -4, -8, 5, 10, 2, 10, 2, 0, -7, 7, 7, 7, 10, 7, 3, 5, 0, 7, -5, 4, 9, 5, 0, 2, 8, -4, -7, -3, -10, 2, -7, 3, 0, 4, 9, -6, -10, 3, -9, -8, -3, -5, 7, -2, 10, -9, 4, 4, 1, -9, 9, 8, 5 ]);